
Gurobi 12.0.3 (linux64, gurobi_cl) logging started Mon Sep 15 11:37:50 2025

Set parameter Username
Set parameter LicenseID to value 2708985
Set parameter LogFile to value "gurobi.log"
Using license file /home/ancyu/gurobi.lic
Academic license - for non-commercial use only - expires 2026-09-15
